p cnf 13 25
-13 -12 5 0
-13 11 9 0
-13 -9 -8 0
13 9 -1 0
-13 -8 -6 0
13 -4 2 0
-13 3 2 0
13 2 -1 0
12 -10 4 0
12 3 -2 0
-12 -2 -1 0
-11 -10 7 0
11 -10 5 0
-11 -7 6 0
11 7 -4 0
11 -7 3 0
-11 6 3 0
-10 8 3 0
-10 -6 -1 0
-9 -8 -4 0
8 -7 3 0
-7 -5 2 0
-7 4 2 0
6 -3 1 0
4 3 -2 0
